15,7	0,0	15,4	13,9	0,0	0,0	0,0	0,0	0,0	8,7
5,8	19,8	0,0	16,8	13,7	0,0	0,0	10,4	0,0	0,0
0,0	0,0	7,5	0,0	11,8	17,1	0,0	0,0	13,3	0,0
5,1	0,0	18,1	0,0	0,0	0,0	18,9	0,0	0,0	0,0
0,0	8,8	0,0	18,4	9,4	0,0	0,0	14,5	0,0	0,0
0,0	9,1	8,1	0,0	5,2	5,6	0,0	0,0	5,2	0,0
0,0	17,8	0,0	10,1	0,0	0,0	8,2	0,0	0,0	11,5
18,7	0,0	15,1	0,0	0,0	0,0	0,0	0,0	0,0	10,9
0,0	6,8	0,0	17,5	5,9	0,0	0,0	9,1	0,0	0,0
0,0	0,0	12,5	0,0	0,0	10,7	11,9	0,0	0,0	18,2
									
4,1	4,9	4,8	4,9	4,4	4,4	3,5	2,8	2,9	2,9
